&FORCE_EVAL
  &SUBSYS
    &CELL
      PERIODIC xyz
      ABC 5.0 5.0 5.0
      ALPHA_BETA_GAMMA 90.0 90.0 90.0
    &END CELL
  &END SUBSYS
&END FORCE_EVAL
