&FORCE_EVAL
  &SUBSYS
    &CELL
      PERIODIC xyz
      ABC 2.7 4.9 2.1
      ALPHA_BETA_GAMMA 104.0 83.0 66.0
    &END CELL
  &END SUBSYS
&END FORCE_EVAL
