 # Version information for this restart file 
 # current date 2017-07-05 14:50:31.758
 # current working dir /home/andersle/src/pyretis/examples/test/test-cp2k/test-cp2k/forward-plain
 # Program compiled at                              Tue May 31 01:47:20 UTC 2016
 # Program compiled on                                                  lgw01-55
 # Program compiled for                                    Linux-x86_64-gfortran
 # Source code revision number                                         svn:16458
 &GLOBAL
   PRINT_LEVEL  LOW
   PROJECT_NAME md
   RUN_TYPE  MD
 &END GLOBAL
 &MOTION
   &MD
     STEPS  120
     TIMESTEP     4.9999999999999994E-01
     STEP_START_VAL  120
     TIME_START_VAL     6.0000000000000043E+01
     ECONS_START_VAL    -1.5901531775439249E+01
     TEMPERATURE     5.0000000000000000E+02
     &AVERAGES  T
       &RESTART_AVERAGES
         ITIMES_START  1
         AVECPU     4.6362532162505254E-01
         AVEHUGONIOT     0.0000000000000000E+00
         AVETEMP_BARO     0.0000000000000000E+00
         AVEPOT    -1.5975828823438915E+01
         AVEKIN     6.3241356513144720E-02
         AVETEMP     6.6566723619476170E+03
         AVEKIN_QM     0.0000000000000000E+00
         AVETEMP_QM     0.0000000000000000E+00
         AVEVOL     8.4354182288625054E+02
         AVECELL_A     9.4486306644282365E+00
         AVECELL_B     9.4486306644282365E+00
         AVECELL_C     9.4486306644282365E+00
         AVEALPHA     8.9999999999999915E+01
         AVEBETA     8.9999999999999915E+01
         AVEGAMMA     8.9999999999999915E+01
         AVE_ECONS    -1.1541195916717270E+03
         AVE_PRESS     0.0000000000000000E+00
         AVE_PXX     0.0000000000000000E+00
       &END RESTART_AVERAGES
     &END AVERAGES
   &END MD
   &PRINT
     &TRAJECTORY  SILENT
       &EACH
         MD  1
       &END EACH
     &END TRAJECTORY
     &VELOCITIES  SILENT
       &EACH
         MD  1
       &END EACH
     &END VELOCITIES
     &RESTART  SILENT
       BACKUP_COPIES  0
       &EACH
         MD  1
       &END EACH
     &END RESTART
   &END PRINT
 &END MOTION
 &FORCE_EVAL
   METHOD  QS
   &DFT
     BASIS_SET_FILE_NAME GTH_BASIS_SETS
     POTENTIAL_FILE_NAME GTH_POTENTIALS
     &SCF
       MAX_SCF  20
       EPS_SCF     1.0000000000000001E-05
       SCF_GUESS  RESTART
       &OT  T
         MINIMIZER  DIIS
       &END OT
       &PRINT
         &RESTART  SILENT
           BACKUP_COPIES  0
         &END RESTART
       &END PRINT
     &END SCF
     &QS
       EPS_DEFAULT     1.0000000000000001E-05
       EXTRAPOLATION  PS
     &END QS
     &MGRID
       CUTOFF     2.8000000000000000E+02
       REL_CUTOFF     3.0000000000000000E+01
     &END MGRID
     &XC
       DENSITY_CUTOFF     1.0000000000000000E-10
       GRADIENT_CUTOFF     1.0000000000000000E-10
       TAU_CUTOFF     1.0000000000000000E-10
       &XC_FUNCTIONAL  NO_SHORTCUT
         &PADE  T
         &END PADE
       &END XC_FUNCTIONAL
     &END XC
   &END DFT
   &SUBSYS
     &CELL
       A     5.0000000000000009E+00    0.0000000000000000E+00    0.0000000000000000E+00
       B     0.0000000000000000E+00    5.0000000000000009E+00    0.0000000000000000E+00
       C     0.0000000000000000E+00    0.0000000000000000E+00    5.0000000000000009E+00
       PERIODIC  XYZ
       MULTIPLE_UNIT_CELL  1 1 1
     &END CELL
     &COORD
H    2.0037295984360898E-01    1.3196012905205206E+00   -8.4772218235716257E-01
N    1.2469580920891239E+00    5.6235164153925576E-01   -1.5756836410607700E-01
C   -1.5843560585520555E-01    3.9769694640060993E-01    2.4037061887112918E-01
     &END COORD
     &VELOCITY
          -1.3106795516477289E-03   -1.7627790939445680E-03   -4.3827056898331971E-04
          -7.7711186323380392E-04   -4.0307772046066932E-04    4.6944742420092559E-04
           1.0163250974302026E-03    6.1937600463006590E-04   -5.3549195000426192E-04
     &END VELOCITY
     &KIND N
       BASIS_SET DZVP-GTH
       ELEMENT N
       POTENTIAL GTH-PBE-q5
       &POTENTIAL
 2 3
  0.2837905100000000E+00 2 -0.1241522559000000E+02  0.1868095920000000E+01
 2
  0.2554050000000000E+00 1  0.1363026257000000E+02
  0.2454945300000000E+00 0
         # Potential name:  GTH-PBE-Q5  for symbol:  N
         # Potential read from the potential filename: GTH_POTENTIALS
       &END POTENTIAL
     &END KIND
     &KIND C
       BASIS_SET DZVP-GTH
       ELEMENT C
       POTENTIAL GTH-PBE-q4
       &POTENTIAL
 2 2
  0.3384712400000000E+00 2 -0.8803673979999999E+01  0.1339210850000000E+01
 2
  0.3025757500000000E+00 1  0.9622486650000001E+01
  0.2915069400000000E+00 0
         # Potential name:  GTH-PBE-Q4  for symbol:  C
         # Potential read from the potential filename: GTH_POTENTIALS
       &END POTENTIAL
     &END KIND
     &KIND H
       BASIS_SET DZVP-GTH
       ELEMENT H
       POTENTIAL GTH-PBE-q1
       &POTENTIAL
 1
  0.2000000000000000E+00 2 -0.4178900440000000E+01  0.7244633100000000E+00
 0
         # Potential name:  GTH-PBE-Q1  for symbol:  H
         # Potential read from the potential filename: GTH_POTENTIALS
       &END POTENTIAL
     &END KIND
     &TOPOLOGY
       COORD_FILE_NAME genvel.xyz
       COORD_FILE_FORMAT  XYZ
       NUMBER_OF_ATOMS  3
       MULTIPLE_UNIT_CELL  1 1 1
     &END TOPOLOGY
   &END SUBSYS
 &END FORCE_EVAL
