MAGMOM = 2 -2     ! Magnetic moment per atom (H2)
TEBEG = 2000       ! Temperature
PREC = Normal     ! standard precision 
ENMAX = 400       ! cutoff should be set manually
ISMEAR = 0 ; SIGMA = 0.1
ISYM = 0          ! strongly recommended for MD
IBRION = 0        ! molecular dynamics
SMASS = -3        ! Nose Hoover thermostat
POTIM = 1         ! timestep fs
NSW = 1           ! Number of steps
