 H2                                     
   10.0000000000000000     
     1.0000000000000000    0.0000000000000000    0.0000000000000000
     0.0000000000000000    1.0000000000000000    0.0000000000000000
     0.0000000000000000    0.0000000000000000    1.0000000000000000
   H    H 
     1     1
Selective dynamics
Direct
  0.5 0.5  0.5   T   T   T
  0.5 0.5  0.574   T   T   T
